\* The_truck_routing_problem *\
Minimize
routing_cost: 350 Pattern_0 + 350 Pattern_1 + 350 Pattern_10 + 350 Pattern_11
 + 350 Pattern_12 + 350 Pattern_13 + 175 Pattern_14 + 350 Pattern_15
 + 350 Pattern_16 + 525 Pattern_17 + 350 Pattern_18 + 525 Pattern_19
 + 525 Pattern_2 + 350 Pattern_20 + 350 Pattern_21 + 350 Pattern_22
 + 175 Pattern_23 + 350 Pattern_24 + 350 Pattern_25 + 350 Pattern_26
 + 350 Pattern_27 + 350 Pattern_28 + 175 Pattern_29 + 350 Pattern_3
 + 350 Pattern_4 + 350 Pattern_5 + 350 Pattern_6 + 350 Pattern_7
 + 350 Pattern_8 + 350 Pattern_9
Subject To
Satisfying_demand_for_Noel_Leeming_Albany: Pattern_1 + Pattern_15 = 1
Satisfying_demand_for_Noel_Leeming_Botany: Pattern_12 + Pattern_27 = 1
Satisfying_demand_for_Noel_Leeming_Glenfield_Clearance: Pattern_1 + Pattern_16
 = 1
Satisfying_demand_for_Noel_Leeming_Henderson: Pattern_17 + Pattern_5 = 1
Satisfying_demand_for_Noel_Leeming_Lunn_Avenue: Pattern_21 + Pattern_6 = 1
Satisfying_demand_for_Noel_Leeming_Manukau_Supa_Centre: Pattern_13
 + Pattern_28 = 1
Satisfying_demand_for_Noel_Leeming_Manukau_Westfield: Pattern_13 + Pattern_28
 = 1
Satisfying_demand_for_Noel_Leeming_Massey: Pattern_19 + Pattern_3 = 1
Satisfying_demand_for_Noel_Leeming_New_Lynn: Pattern_17 + Pattern_3 = 1
Satisfying_demand_for_Noel_Leeming_Newmarket: Pattern_22 + Pattern_8 = 1
Satisfying_demand_for_Noel_Leeming_Ormiston: Pattern_12 + Pattern_27 = 1
Satisfying_demand_for_Noel_Leeming_Papakura: Pattern_24 + Pattern_9 = 1
Satisfying_demand_for_Noel_Leeming_Papatoetoe: Pattern_10 + Pattern_25 = 1
Satisfying_demand_for_Noel_Leeming_Penrose_Clearance: Pattern_11 + Pattern_26
 = 1
Satisfying_demand_for_Noel_Leeming_Queen_Street: Pattern_23 + Pattern_8 = 1
Satisfying_demand_for_Noel_Leeming_Royal_Oak: Pattern_22 + Pattern_7 = 1
Satisfying_demand_for_Noel_Leeming_St_Lukes_Mega: Pattern_2 + Pattern_20 = 1
Satisfying_demand_for_Noel_Leeming_St_Lukes_Westfield: Pattern_17 + Pattern_2
 = 1
Satisfying_demand_for_Noel_Leeming_Sylvia_Park: Pattern_11 + Pattern_25 = 1
Satisfying_demand_for_Noel_Leeming_Wairau_Park: Pattern_0 + Pattern_16 = 1
Satisfying_demand_for_The_Warehouse_Airport: Pattern_10 + Pattern_26 = 1
Satisfying_demand_for_The_Warehouse_Albany: Pattern_0 + Pattern_16 = 1
Satisfying_demand_for_The_Warehouse_Atrium: Pattern_23 + Pattern_7 = 1
Satisfying_demand_for_The_Warehouse_Botany_Downs: Pattern_12 + Pattern_29 = 1
Satisfying_demand_for_The_Warehouse_Clendon: Pattern_24 + Pattern_9 = 1
Satisfying_demand_for_The_Warehouse_Glenfield_Mall: Pattern_1 + Pattern_15 = 1
Satisfying_demand_for_The_Warehouse_Lincoln_Road: Pattern_19 + Pattern_5 = 1
Satisfying_demand_for_The_Warehouse_Lunn_Avenue: Pattern_22 + Pattern_6 = 1
Satisfying_demand_for_The_Warehouse_Manukau: Pattern_14 + Pattern_27 = 1
Satisfying_demand_for_The_Warehouse_Milford: Pattern_0 + Pattern_15 = 1
Satisfying_demand_for_The_Warehouse_Mt_Roskill: Pattern_17 + Pattern_4 = 1
Satisfying_demand_for_The_Warehouse_New_Lynn: Pattern_18 + Pattern_3 = 1
Satisfying_demand_for_The_Warehouse_Newmarket: Pattern_21 + Pattern_7 = 1
Satisfying_demand_for_The_Warehouse_Pakuranga: Pattern_13 + Pattern_28 = 1
Satisfying_demand_for_The_Warehouse_Royal_Oak: Pattern_21 + Pattern_6 = 1
Satisfying_demand_for_The_Warehouse_St_Lukes: Pattern_18 + Pattern_5 = 1
Satisfying_demand_for_The_Warehouse_Sylvia_Park: Pattern_10 + Pattern_25 = 1
Satisfying_demand_for_The_Warehouse_Takanini: Pattern_24 + Pattern_9 = 1
Satisfying_demand_for_The_Warehouse_WestCity: Pattern_19 + Pattern_2 = 1
Satisfying_demand_for_The_Warehouse_Westgate: Pattern_20 + Pattern_4 = 1
Binaries
Pattern_0
Pattern_1
Pattern_10
Pattern_11
Pattern_12
Pattern_13
Pattern_14
Pattern_15
Pattern_16
Pattern_17
Pattern_18
Pattern_19
Pattern_2
Pattern_20
Pattern_21
Pattern_22
Pattern_23
Pattern_24
Pattern_25
Pattern_26
Pattern_27
Pattern_28
Pattern_29
Pattern_3
Pattern_4
Pattern_5
Pattern_6
Pattern_7
Pattern_8
Pattern_9
End
